(set-logic QF_S)
(declare-fun var0 () String)
(assert (str.in.re var0 (re.++ (re.union (re.+ (str.to.re "000")) (re.+ (str.to.re "111"))) (re.++ (re.* (re.+ (str.to.re "22"))) (re.++ (re.+ (re.union (str.to.re "333") (str.to.re "44"))) (re.++ (re.+ (re.union (str.to.re "555") (str.to.re "666"))) (re.++ (re.union (re.union (str.to.re "77") (str.to.re "8")) (re.union (str.to.re "99") (str.to.re "aaa"))) (re.++ (re.+ (re.union (str.to.re "b") (str.to.re "cc"))) (re.++ (re.union (re.union (str.to.re "ddd") (str.to.re "e")) (re.union (str.to.re "fff") (str.to.re "ggg"))) (re.++ (re.union (re.union (str.to.re "h") (str.to.re "i")) (re.union (str.to.re "j") (str.to.re "kkk"))) (re.++ (re.* (re.+ (str.to.re "l"))) (re.++ (re.+ (re.+ (str.to.re "mmm"))) (re.++ (re.union (re.* (str.to.re "n")) (re.* (str.to.re "o"))) (re.++ (re.* (re.+ (str.to.re "pp"))) (re.++ (re.union (re.+ (str.to.re "qqq")) (re.+ (str.to.re "r"))) (re.++ (re.* (re.* (str.to.re "sss"))) (re.++ (re.union (re.+ (str.to.re "t")) (re.+ (str.to.re "uu"))) (re.++ (re.union (re.+ (str.to.re "vv")) (re.+ (str.to.re "w"))) (re.++ (re.union (re.+ (str.to.re "xxx")) (re.+ (str.to.re "y"))) (re.++ (re.union (re.* (str.to.re "z")) (re.* (str.to.re "AAA"))) (re.++ (re.* (re.union (str.to.re "B") (str.to.re "CC"))) (re.++ (re.* (re.* (str.to.re "DD"))) (re.++ (re.union (re.union (str.to.re "EE") (str.to.re "F")) (re.union (str.to.re "GGG") (str.to.re "H"))) (re.++ (re.* (re.union (str.to.re "I") (str.to.re "JJ"))) (re.++ (re.+ (re.+ (str.to.re "K"))) (re.++ (re.+ (re.union (str.to.re "L") (str.to.re "MM"))) (re.++ (re.* (re.union (str.to.re "NN") (str.to.re "O"))) (re.union (re.union (str.to.re "PPP") (str.to.re "QQ")) (re.union (str.to.re "RRR") (str.to.re "S"))))))))))))))))))))))))))))))
(assert (not (str.in.re var0 (re.++ (re.+ (re.union (str.to.re "00") (str.to.re "11"))) (re.++ (re.+ (re.union (str.to.re "2") (str.to.re "33"))) (re.++ (re.union (re.* (str.to.re "44")) (re.* (str.to.re "5"))) (re.++ (re.* (re.union (str.to.re "6") (str.to.re "777"))) (re.++ (re.union (re.* (str.to.re "88")) (re.* (str.to.re "9"))) (re.++ (re.union (re.+ (str.to.re "aa")) (re.+ (str.to.re "bbb"))) (re.++ (re.* (re.* (str.to.re "c"))) (re.++ (re.* (re.* (str.to.re "dd"))) (re.++ (re.* (re.* (str.to.re "eee"))) (re.++ (re.* (re.* (str.to.re "f"))) (re.++ (re.* (re.+ (str.to.re "ggg"))) (re.++ (re.* (re.+ (str.to.re "hhh"))) (re.++ (re.+ (re.+ (str.to.re "i"))) (re.++ (re.+ (re.union (str.to.re "jjj") (str.to.re "k"))) (re.++ (re.+ (re.union (str.to.re "l") (str.to.re "m"))) (re.++ (re.* (re.union (str.to.re "n") (str.to.re "o"))) (re.++ (re.union (re.union (str.to.re "p") (str.to.re "qq")) (re.union (str.to.re "rr") (str.to.re "s"))) (re.++ (re.union (re.+ (str.to.re "ttt")) (re.+ (str.to.re "u"))) (re.++ (re.+ (re.* (str.to.re "vv"))) (re.++ (re.union (re.union (str.to.re "ww") (str.to.re "xx")) (re.union (str.to.re "yyy") (str.to.re "zz"))) (re.++ (re.union (re.* (str.to.re "AA")) (re.* (str.to.re "BBB"))) (re.++ (re.union (re.+ (str.to.re "C")) (re.+ (str.to.re "DD"))) (re.++ (re.* (re.* (str.to.re "E"))) (re.++ (re.union (re.union (str.to.re "FFF") (str.to.re "GGG")) (re.union (str.to.re "HHH") (str.to.re "II"))) (re.++ (re.+ (re.union (str.to.re "JJJ") (str.to.re "K"))) (re.+ (re.* (str.to.re "L")))))))))))))))))))))))))))))))
(check-sat)